
Gurobi 9.5.0 (linux64) logging started Wed Nov 15 11:36:55 2023

Set parameter LogFile to value "/lustre1/scratch/348/vsc34888/JointResearch/05.Models/06.Benchmarking/D.Representative_days_based_on_RES_and_Demand/RTS24_mod1_ByStages_nc90/openStarNet_RTS24_mod1_ByStages_nc90.log"
Set parameter Method to value 2
Set parameter MIPFocus to value 1
Set parameter Presolve to value 2
Set parameter RINS to value 100
Set parameter MIPGap to value 0.01
Set parameter Threads to value 36
Set parameter TimeLimit to value 604800
Set parameter IterationLimit to value 760000000
Gurobi Optimizer version 9.5.0 build v9.5.0rc5 (linux64)
Thread count: 36 physical cores, 36 logical processors, using up to 36 threads
Optimize a model with 35102 rows, 22297 columns and 87112 nonzeros
Model fingerprint: 0x09e20c2f
Variable types: 22281 continuous, 16 integer (16 binary)
Coefficient statistics:
  Matrix range     [4e-03, 3e+04]
  Objective range  [1e+00, 1e+00]
  Bounds range     [3e-05, 2e+00]
  RHS range        [3e-05, 2e+00]
Presolve removed 22999 rows and 11265 columns
Presolve time: 0.11s
Presolved: 12103 rows, 11032 columns, 42639 nonzeros
Variable types: 11016 continuous, 16 integer (16 binary)
Found heuristic solution: objective 213.1624353
Root relaxation presolved: 12103 rows, 11032 columns, 42639 nonzeros

Root barrier log...

Ordering time: 0.00s

Barrier statistics:
 Dense cols : 16
 AA' NZ     : 6.770e+04
 Factor NZ  : 2.335e+05 (roughly 11 MB of memory)
 Factor Ops : 4.841e+06 (less than 1 second per iteration)
 Threads    : 36

                  Objective                Residual
Iter       Primal          Dual         Primal    Dual     Compl     Time
   0   7.54322204e+05 -1.17129247e+08  6.21e+00 1.29e+02  9.48e+03     0s
   1   8.43778681e+04 -2.48449480e+07  4.92e-01 6.45e-09  1.11e+03     0s
   2   4.45728653e+04 -3.00580051e+06  1.33e-01 1.90e-09  1.26e+02     0s
   3   2.65437187e+04 -4.84867583e+05  7.71e-03 2.97e-10  1.78e+01     0s
   4   1.15618092e+04 -9.89886112e+04  3.35e-04 4.74e-11  3.79e+00     0s
   5   4.00464016e+03 -2.44760827e+04  1.04e-04 9.93e-12  9.77e-01     0s
   6   1.01135489e+03 -4.23089818e+03  1.57e-05 1.85e-12  1.80e-01     0s
   7   3.73697616e+02 -1.37778386e+03  7.19e-07 9.09e-13  6.01e-02     0s
   8   2.58228223e+02 -6.48339547e+02  2.91e-07 9.09e-13  3.11e-02     0s
   9   2.05513534e+02 -2.14629741e+02  1.68e-07 1.82e-12  1.44e-02     0s
  10   1.80456766e+02 -1.64572360e+01  1.24e-07 3.64e-12  6.75e-03     0s
  11   1.44683682e+02  3.99909308e+01  6.69e-08 9.09e-13  3.59e-03     0s
  12   1.30756391e+02  7.73150048e+01  4.55e-08 1.82e-12  1.83e-03     0s
  13   1.16540346e+02  9.33168582e+01  2.31e-08 9.09e-13  7.96e-04     0s
  14   1.08841038e+02  9.74915062e+01  1.00e-08 9.09e-13  3.89e-04     0s
  15   1.07768453e+02  9.89780535e+01  8.20e-09 1.82e-12  3.01e-04     0s
  16   1.05714836e+02  1.00612748e+02  4.71e-09 9.09e-13  1.75e-04     0s
  17   1.04690472e+02  1.01671380e+02  3.05e-09 1.82e-12  1.04e-04     0s
  18   1.03640384e+02  1.02143591e+02  1.21e-09 1.82e-12  5.13e-05     0s
  19   1.03276242e+02  1.02539341e+02  6.17e-10 9.09e-13  2.53e-05     0s
  20   1.03105433e+02  1.02727350e+02  3.54e-10 1.82e-12  1.30e-05     0s
  21   1.02961328e+02  1.02791446e+02  1.24e-10 1.82e-12  5.83e-06     0s
  22   1.02905347e+02  1.02864753e+02  1.42e-10 1.82e-12  1.39e-06     0s
  23   1.02885506e+02  1.02876139e+02  3.17e-10 9.09e-13  3.21e-07     0s
  24   1.02883885e+02  1.02878940e+02  1.77e-10 9.09e-13  1.70e-07     0s
  25   1.02882912e+02  1.02881584e+02  4.23e-10 9.09e-13  4.55e-08     0s
  26   1.02882081e+02  1.02881900e+02  7.11e-10 3.64e-12  6.21e-09     0s
  27   1.02881922e+02  1.02881913e+02  6.39e-09 1.82e-12  3.26e-10     0s
  28   1.02881918e+02  1.02881918e+02  5.22e-10 3.64e-12  3.27e-13     0s

Barrier solved model in 28 iterations and 0.48 seconds (0.45 work units)
Optimal objective 1.02881918e+02


Root relaxation: objective 1.028819e+02, 1527 iterations, 0.32 seconds (0.23 work units)

    Nodes    |    Current Node    |     Objective Bounds      |     Work
 Expl Unexpl |  Obj  Depth IntInf | Incumbent    BestBd   Gap | It/Node Time

     0     0  102.88192    0   15  213.16244  102.88192  51.7%     -    0s
H    0     0                     128.9463708  102.88192  20.2%     -    0s
     0     0  105.33298    0   10  128.94637  105.33298  18.3%     -    1s
     0     0  105.50872    0   11  128.94637  105.50872  18.2%     -    1s
     0     0  105.50872    0   11  128.94637  105.50872  18.2%     -    1s
     0     0  106.49673    0   11  128.94637  106.49673  17.4%     -    1s
     0     0  106.60302    0   11  128.94637  106.60302  17.3%     -    2s
     0     0  106.60322    0   11  128.94637  106.60322  17.3%     -    2s
     0     0  107.28063    0    9  128.94637  107.28063  16.8%     -    2s
     0     0  107.34427    0    9  128.94637  107.34427  16.8%     -    2s
     0     0  107.34445    0   10  128.94637  107.34445  16.8%     -    2s
H    0     0                     117.4484780  107.34445  8.60%     -    2s
     0     0  107.45875    0    8  117.44848  107.45875  8.51%     -    2s
     0     0  107.46305    0    9  117.44848  107.46305  8.50%     -    2s
     0     0  107.46580    0    9  117.44848  107.46580  8.50%     -    2s
     0     0  107.46580    0    9  117.44848  107.46580  8.50%     -    2s
     0     0  107.53429    0    9  117.44848  107.53429  8.44%     -    3s
     0     2  107.53429    0    9  117.44848  107.53429  8.44%     -    5s

Cutting planes:
  Implied bound: 94
  MIR: 675
  Relax-and-lift: 1

Explored 84 nodes (19370 simplex iterations) in 5.94 seconds (6.66 work units)
Thread count was 36 (of 36 available processors)

Solution count 3: 117.448 128.946 213.162 

Optimal solution found (tolerance 1.00e-02)
Best objective 1.174484780357e+02, best bound 1.169319403365e+02, gap 0.4398%

Gurobi 9.5.0 (linux64) logging started Wed Nov 15 11:37:05 2023

Set parameter LogFile to value "/lustre1/scratch/348/vsc34888/JointResearch/05.Models/06.Benchmarking/D.Representative_days_based_on_RES_and_Demand/RTS24_mod1_ByStages_nc90/openStarNet_RTS24_mod1_ByStages_nc90.log"
Set parameter Method to value 2
Set parameter MIPFocus to value 1
Set parameter Presolve to value 2
Set parameter RINS to value 100
Set parameter MIPGap to value 0.01
Set parameter Threads to value 36
Set parameter TimeLimit to value 604800
Set parameter IterationLimit to value 760000000
No parameters matching 'relax_integrality' found
Gurobi Optimizer version 9.5.0 build v9.5.0rc5 (linux64)
Thread count: 36 physical cores, 36 logical processors, using up to 36 threads
Optimize a model with 35102 rows, 22281 columns and 81272 nonzeros
Model fingerprint: 0x2ab60fe4
Coefficient statistics:
  Matrix range     [4e-03, 3e+04]
  Objective range  [1e+00, 1e+00]
  Bounds range     [3e-05, 2e+00]
  RHS range        [3e-05, 3e+01]
Presolve removed 26730 rows and 9809 columns
Presolve time: 0.03s
Presolved: 8372 rows, 12563 columns, 31218 nonzeros

Ordering time: 0.00s

Barrier statistics:
 AA' NZ     : 2.174e+04
 Factor NZ  : 9.051e+04 (roughly 8 MB of memory)
 Factor Ops : 1.364e+06 (less than 1 second per iteration)
 Threads    : 36

                  Objective                Residual
Iter       Primal          Dual         Primal    Dual     Compl     Time
   0   8.60413520e+05 -3.15138933e+07  1.43e+01 4.61e+01  3.12e+03     0s
   1   1.18538405e+05 -5.13015720e+06  1.52e+00 7.13e-13  3.49e+02     0s
   2   3.22728951e+04 -7.19876198e+05  1.46e-01 7.74e-13  3.93e+01     0s
   3   1.17826358e+04 -9.62576827e+04  5.86e-03 3.62e-13  5.06e+00     0s
   4   1.77146254e+03 -1.15123054e+04  4.59e-04 2.74e-13  6.18e-01     0s
   5   6.01854455e+02 -2.96365193e+03  6.88e-05 2.03e-13  1.66e-01     0s
   6   3.42985284e+02 -1.10265603e+03  1.11e-05 2.27e-13  6.72e-02     0s
   7   2.57200786e+02 -4.26820271e+02  5.36e-06 2.27e-13  3.18e-02     0s
   8   1.93828581e+02 -1.30127615e+02  2.51e-06 1.14e-13  1.51e-02     0s
   9   1.48500772e+02  4.40800060e+00  8.63e-07 2.27e-13  6.70e-03     0s
  10   1.24086004e+02  8.48140473e+01  1.40e-07 1.71e-13  1.83e-03     0s
  11   1.19516032e+02  1.11580983e+02  3.94e-08 1.71e-13  3.69e-04     0s
  12   1.18002780e+02  1.15871983e+02  9.62e-09 2.27e-13  9.91e-05     0s
  13   1.17539428e+02  1.16805206e+02  1.36e-09 2.27e-13  3.41e-05     0s
  14   1.17455757e+02  1.17297032e+02  4.88e-10 2.27e-13  7.38e-06     0s
  15   1.17448933e+02  1.17432007e+02  8.65e-11 2.27e-13  7.87e-07     0s
  16   1.17448505e+02  1.17448357e+02  4.47e-11 1.14e-13  6.86e-09     0s
  17   1.17448478e+02  1.17448478e+02  4.27e-11 2.27e-13  3.23e-13     0s

Barrier solved model in 17 iterations and 0.15 seconds (0.11 work units)
Optimal objective 1.17448478e+02

Crossover log...

    1134 DPushes remaining with DInf 0.0000000e+00                 0s
       0 DPushes remaining with DInf 0.0000000e+00                 0s

     334 PPushes remaining with PInf 0.0000000e+00                 0s
       0 PPushes remaining with PInf 0.0000000e+00                 0s

  Push phase complete: Pinf 0.0000000e+00, Dinf 4.7870138e-13      0s

Iteration    Objective       Primal Inf.    Dual Inf.      Time
     377    1.1744848e+02   0.000000e+00   0.000000e+00      0s

Use crossover to convert LP symmetric solution to basic solution...
Crossover log...

       0 DPushes remaining with DInf 0.0000000e+00                 0s

     185 PPushes remaining with PInf 0.0000000e+00                 0s
       0 PPushes remaining with PInf 0.0000000e+00                 0s

  Push phase complete: Pinf 0.0000000e+00, Dinf 5.4389069e-13      0s

Iteration    Objective       Primal Inf.    Dual Inf.      Time
     593    1.1744848e+02   0.000000e+00   0.000000e+00      0s

Solved in 593 iterations and 0.23 seconds (0.15 work units)
Optimal objective  1.174484780e+02
